letting n =  10
letting blocks =  [[1, 1], [1, 2], [1, 4], [1, 9], [1, 10], [2, 2], [2, 3], [2, 4], [2, 5], [2, 7], [2, 9], [3, 1], [3, 6], [4, 5], [4, 6], [5, 3], [6, 7], [6, 10], [7, 1], [7, 5], [7, 7], [7, 8], [7, 10], [8, 1], [8, 8], [8, 9], [9, 1], [9, 6], [9, 8], [9, 10], [10, 1], [10, 4], [10, 8], [10, 9]]
